SCIP version 0.82 [precision: 8 byte] [memory: block] [mode: optimized] [LP solver: SOPLEX 1.3.0]
Copyright (c) 2002-2006 Konrad-Zuse-Zentrum fuer Informationstechnik Berlin (ZIB)

reading parameter file <scip.set>

read problem </ufs/psxjm3/instances/udine1.ctt.etp.zpl>
============

****************************************************
* Zuse Institute Mathematical Programming Language *
* Release 2.04  Copyright (C)2005 by Thorsten Koch *
****************************************************

original problem has 11866 variables (11820 bin, 46 int, 0 impl, 0 cont) and 5250 constraints

solve problem
=============

LP Solver <SOPLEX 1.3.0>: dual feasibility tolerance cannot be set -- tolerance of SCIP and LP solver may differ
LP Solver <SOPLEX 1.3.0>: barrier convergence tolerance cannot be set -- tolerance of SCIP and LP solver may differ
LP Solver <SOPLEX 1.3.0>: fastmip setting not available -- SCIP parameter has no effect
LP Solver <SOPLEX 1.3.0>: scaling not available -- SCIP parameter has no effect
LP Solver <SOPLEX 1.3.0>: presolving not available -- SCIP parameter has no effect
transformed problem has 11866 variables (11820 bin, 46 int, 0 impl, 0 cont) and 5250 constraints
   5250 constraints of type <linear>

presolving:
(round 1) 242 del vars, 26 del conss, 242 chg bounds, 0 chg sides, 0 chg coeffs, 0 upgd conss, 0 impls, 2685 clqs
(round 2) 242 del vars, 54 del conss, 242 chg bounds, 0 chg sides, 0 chg coeffs, 0 upgd conss, 0 impls, 2685 clqs
(round 3) 242 del vars, 1603 del conss, 242 chg bounds, 1582 chg sides, 0 chg coeffs, 0 upgd conss, 0 impls, 2685 clqs
(round 4) 242 del vars, 1603 del conss, 242 chg bounds, 1582 chg sides, 0 chg coeffs, 3506 upgd conss, 0 impls, 2685 clqs
(round 5) 242 del vars, 1666 del conss, 242 chg bounds, 1582 chg sides, 11 chg coeffs, 3506 upgd conss, 0 impls, 2685 clqs
   (7.1s) probing: 100/11578 (0.9%) - 0 fixings, 0 aggregations, 0 implications, 0 bound changes
presolving (6 rounds):
 242 deleted vars, 1666 deleted constraints, 242 tightened bounds, 0 added holes, 1582 changed sides, 11 changed coefficients
 0 implications, 2685 cliques
presolved problem has 11624 variables (11578 bin, 46 int, 0 impl, 0 cont) and 3584 constraints
   1430 constraints of type <knapsack>
   1785 constraints of type <setppc>
    141 constraints of type <linear>
    228 constraints of type <logicor>
objective value is always integral
Presolving Time: 6.89

 time | node  | left  |LP iter| mem |mdpt |frac |vars |cons |ccons|cols |rows |cuts |confs|strbr|  dualbound   | primalbound  |  gap   
 14.0s|     1 |     0 |  3402 |  68M|   0 | 422 |  11k|3584 |3584 |  11k|3584 |   0 |   0 |   0 | 2.000000e+02 |      --      |    Inf 
 15.9s|     1 |     0 |  3853 |  68M|   0 | 441 |  11k|3584 |3584 |  11k|3588 |   4 |   0 |   0 | 2.000000e+02 |      --      |    Inf 
 17.2s|     1 |     0 |  4087 |  68M|   0 | 455 |  11k|3584 |3584 |  11k|3592 |   8 |   0 |   0 | 2.000000e+02 |      --      |    Inf 
 18.9s|     1 |     0 |  4439 |  68M|   0 | 426 |  11k|3584 |3584 |  11k|3595 |  11 |   0 |   0 | 2.000000e+02 |      --      |    Inf 
 19.6s|     1 |     0 |  4440 |  68M|   0 | 427 |  11k|3584 |3584 |  11k|3596 |  12 |   0 |   0 | 2.000000e+02 |      --      |    Inf 
 21.0s|     1 |     0 |  4691 |  68M|   0 | 488 |  11k|3584 |3584 |  11k|3598 |  14 |   0 |   0 | 2.000000e+02 |      --      |    Inf 
 22.1s|     1 |     0 |  4835 |  68M|   0 | 511 |  11k|3584 |3584 |  11k|3599 |  15 |   0 |   0 | 2.000000e+02 |      --      |    Inf 
  149s|     1 |     2 | 17554 |  69M|   0 | 511 |  11k|3584 |3584 |  11k|3599 |  15 |   0 |  33 | 2.000000e+02 |      --      |    Inf 
  719s|   100 |   101 | 55843 |  70M|  99 |  86 |  11k|3584 |3000 |  11k|3598 |  15 |   0 | 187 | 2.000000e+02 |      --      |    Inf 
* 738s|   141 |   124 | 62401 |  71M| 140 |   - |  11k|3584 |2686 |  11k|3598 |  15 |   0 | 187 | 2.000000e+02 | 2.040000e+02 |   2.00%
  865s|   200 |   183 | 87210 |  71M| 140 | 123 |  11k|3582 |3130 |  11k|3598 |  15 |   0 | 202 | 2.000000e+02 | 2.040000e+02 |   2.00%
* 916s|   229 |     0 | 95455 |  70M| 140 |   - |  11k|3582 |2943 |  11k|3598 |  15 |   0 | 218 | 2.000000e+02 | 2.000000e+02 |   0.00%

SCIP Status        : problem is solved [optimal solution found]
Solving Time (sec) : 916.10
Solving Nodes      : 229
Primal Bound       : +2.00000000000000e+02 (2 solutions)
Dual Bound         : +2.00000000000000e+02
Gap                : 0.00 %

primal solution:
================

objective value:                                  200
Taught#1#1#8                                        1 	(obj:0)
Taught#1#2#27                                       1 	(obj:0)
Taught#1#3#22                                       1 	(obj:0)
Taught#1#4#18                                       1 	(obj:0)
Taught#1#5#5                                        1 	(obj:0)
Taught#1#6#3                                        1 	(obj:0)
Taught#1#7#29                                       1 	(obj:0)
Taught#1#8#39                                       1 	(obj:0)
Taught#1#10#15                                      1 	(obj:0)
Taught#1#11#12                                      1 	(obj:0)
Taught#1#12#37                                      1 	(obj:0)
Taught#2#1#35                                       1 	(obj:0)
Taught#2#2#30                                       1 	(obj:0)
Taught#2#3#22                                       1 	(obj:0)
Taught#2#4#6                                        1 	(obj:0)
Taught#2#5#19                                       1 	(obj:0)
Taught#2#6#7                                        1 	(obj:0)
Taught#2#7#26                                       1 	(obj:0)
Taught#2#8#40                                       1 	(obj:0)
Taught#2#9#43                                       1 	(obj:0)
Taught#2#10#12                                      1 	(obj:0)
Taught#2#11#14                                      1 	(obj:0)
Taught#2#12#38                                      1 	(obj:0)
Taught#3#1#35                                       1 	(obj:0)
Taught#3#2#32                                       1 	(obj:0)
Taught#3#3#8                                        1 	(obj:0)
Taught#3#4#23                                       1 	(obj:0)
Taught#3#5#28                                       1 	(obj:0)
Taught#3#6#24                                       1 	(obj:0)
Taught#3#7#16                                       1 	(obj:0)
Taught#3#8#46                                       1 	(obj:0)
Taught#3#10#21                                      1 	(obj:20)
Taught#4#1#33                                       1 	(obj:0)
Taught#4#2#4                                        1 	(obj:0)
Taught#4#3#25                                       1 	(obj:0)
Taught#4#4#17                                       1 	(obj:0)
Taught#4#5#2                                        1 	(obj:0)
Taught#4#6#20                                       1 	(obj:0)
Taught#4#7#1                                        1 	(obj:0)
Taught#4#10#34                                      1 	(obj:20)
Taught#5#1#8                                        1 	(obj:0)
Taught#5#2#9                                        1 	(obj:0)
Taught#5#3#16                                       1 	(obj:0)
Taught#5#4#3                                        1 	(obj:0)
Taught#5#5#5                                        1 	(obj:0)
Taught#5#6#20                                       1 	(obj:0)
Taught#5#7#19                                       1 	(obj:0)
Taught#5#8#15                                       1 	(obj:0)
Taught#5#9#38                                       1 	(obj:0)
Taught#5#12#44                                      1 	(obj:0)
Taught#6#1#6                                        1 	(obj:0)
Taught#6#2#22                                       1 	(obj:0)
Taught#6#3#32                                       1 	(obj:0)
Taught#6#4#19                                       1 	(obj:0)
Taught#6#5#20                                       1 	(obj:0)
Taught#6#6#17                                       1 	(obj:0)
Taught#6#7#7                                        1 	(obj:0)
Taught#6#8#13                                       1 	(obj:0)
Taught#6#9#15                                       1 	(obj:0)
Taught#6#10#10                                      1 	(obj:0)
Taught#6#11#38                                      1 	(obj:0)
Taught#6#12#44                                      1 	(obj:0)
Taught#7#1#31                                       1 	(obj:0)
Taught#7#2#2                                        1 	(obj:0)
Taught#7#3#11                                       1 	(obj:0)
Taught#7#4#24                                       1 	(obj:0)
Taught#7#5#33                                       1 	(obj:0)
Taught#7#6#23                                       1 	(obj:0)
Taught#7#7#26                                       1 	(obj:0)
Taught#7#8#40                                       1 	(obj:0)
Taught#7#9#42                                       1 	(obj:0)
Taught#7#10#29                                      1 	(obj:20)
Taught#7#11#38                                      1 	(obj:0)
Taught#8#1#30                                       1 	(obj:0)
Taught#8#2#11                                       1 	(obj:0)
Taught#8#3#23                                       1 	(obj:0)
Taught#8#4#33                                       1 	(obj:0)
Taught#8#5#27                                       1 	(obj:0)
Taught#8#6#25                                       1 	(obj:0)
Taught#8#7#4                                        1 	(obj:0)
Taught#8#8#37                                       1 	(obj:0)
Taught#8#10#28                                      1 	(obj:20)
Taught#8#12#39                                      1 	(obj:0)
Taught#9#1#17                                       1 	(obj:0)
Taught#9#2#9                                        1 	(obj:0)
Taught#9#3#35                                       1 	(obj:0)
Taught#9#4#6                                        1 	(obj:0)
Taught#9#5#29                                       1 	(obj:0)
Taught#9#6#26                                       1 	(obj:0)
Taught#9#7#3                                        1 	(obj:0)
Taught#9#8#43                                       1 	(obj:0)
Taught#9#9#36                                       1 	(obj:0)
Taught#9#10#18                                      1 	(obj:20)
Taught#9#11#14                                      1 	(obj:0)
Taught#10#1#18                                      1 	(obj:0)
Taught#10#2#28                                      1 	(obj:0)
Taught#10#3#34                                      1 	(obj:0)
Taught#10#4#5                                       1 	(obj:0)
Taught#10#5#30                                      1 	(obj:0)
Taught#10#6#27                                      1 	(obj:0)
Taught#10#7#16                                      1 	(obj:0)
Taught#10#8#15                                      1 	(obj:0)
Taught#10#9#10                                      1 	(obj:0)
Taught#10#10#43                                     1 	(obj:0)
Taught#10#11#13                                     1 	(obj:0)
Taught#10#12#37                                     1 	(obj:0)
Taught#11#1#11                                      1 	(obj:0)
Taught#11#2#30                                      1 	(obj:0)
Taught#11#3#1                                       1 	(obj:0)
Taught#11#4#32                                      1 	(obj:0)
Taught#11#5#8                                       1 	(obj:0)
Taught#11#6#24                                      1 	(obj:0)
Taught#11#7#22                                      1 	(obj:0)
Taught#11#9#39                                      1 	(obj:0)
Taught#11#10#20                                     1 	(obj:20)
Taught#11#11#41                                     1 	(obj:0)
Taught#12#1#31                                      1 	(obj:0)
Taught#12#2#29                                      1 	(obj:0)
Taught#12#3#25                                      1 	(obj:0)
Taught#12#4#23                                      1 	(obj:0)
Taught#12#5#33                                      1 	(obj:0)
Taught#12#6#21                                      1 	(obj:0)
Taught#12#7#7                                       1 	(obj:0)
Taught#12#8#38                                      1 	(obj:0)
Taught#12#9#12                                      1 	(obj:0)
Taught#12#11#13                                     1 	(obj:0)
Taught#13#1#35                                      1 	(obj:0)
Taught#13#2#1                                       1 	(obj:0)
Taught#13#3#5                                       1 	(obj:0)
Taught#13#4#7                                       1 	(obj:0)
Taught#13#5#28                                      1 	(obj:0)
Taught#13#6#25                                      1 	(obj:0)
Taught#13#7#31                                      1 	(obj:0)
Taught#13#8#10                                      1 	(obj:0)
Taught#13#9#14                                      1 	(obj:0)
Taught#14#1#16                                      1 	(obj:0)
Taught#14#2#2                                       1 	(obj:0)
Taught#14#3#31                                      1 	(obj:0)
Taught#14#4#28                                      1 	(obj:0)
Taught#14#5#6                                       1 	(obj:0)
Taught#14#6#7                                       1 	(obj:0)
Taught#14#7#25                                      1 	(obj:0)
Taught#14#8#10                                      1 	(obj:0)
Taught#14#9#14                                      1 	(obj:0)
Taught#14#10#34                                     1 	(obj:20)
Taught#15#1#9                                       1 	(obj:0)
Taught#15#2#16                                      1 	(obj:0)
Taught#15#3#1                                       1 	(obj:0)
Taught#15#4#5                                       1 	(obj:0)
Taught#15#5#21                                      1 	(obj:0)
Taught#15#6#8                                       1 	(obj:0)
Taught#15#7#19                                      1 	(obj:0)
Taught#15#8#15                                      1 	(obj:0)
Taught#15#9#13                                      1 	(obj:0)
Taught#15#10#34                                     1 	(obj:20)
Taught#15#11#12                                     1 	(obj:0)
Taught#15#12#46                                     1 	(obj:0)
Taught#16#1#4                                       1 	(obj:0)
Taught#16#2#3                                       1 	(obj:0)
Taught#16#3#11                                      1 	(obj:0)
Taught#16#4#6                                       1 	(obj:0)
Taught#16#5#18                                      1 	(obj:0)
Taught#16#6#2                                       1 	(obj:0)
Taught#16#7#21                                      1 	(obj:0)
Taught#16#9#38                                      1 	(obj:0)
Taught#16#10#45                                     1 	(obj:0)
Taught#16#11#36                                     1 	(obj:0)
Taught#17#1#26                                      1 	(obj:0)
Taught#17#2#11                                      1 	(obj:0)
Taught#17#3#2                                       1 	(obj:0)
Taught#17#4#33                                      1 	(obj:0)
Taught#17#5#4                                       1 	(obj:0)
Taught#17#6#34                                      1 	(obj:0)
Taught#17#7#9                                       1 	(obj:0)
Taught#17#8#39                                      1 	(obj:0)
Taught#17#10#29                                     1 	(obj:20)
Taught#17#12#45                                     1 	(obj:0)
Taught#18#1#9                                       1 	(obj:0)
Taught#18#2#1                                       1 	(obj:0)
Taught#18#3#26                                      1 	(obj:0)
Taught#18#4#35                                      1 	(obj:0)
Taught#18#5#30                                      1 	(obj:0)
Taught#18#6#20                                      1 	(obj:0)
Taught#18#7#32                                      1 	(obj:0)
Taught#18#8#13                                      1 	(obj:0)
Taught#18#10#12                                     1 	(obj:0)
Taught#18#11#14                                     1 	(obj:0)
Taught#18#12#39                                     1 	(obj:0)
Taught#19#1#3                                       1 	(obj:0)
Taught#19#2#27                                      1 	(obj:0)
Taught#19#3#22                                      1 	(obj:0)
Taught#19#4#17                                      1 	(obj:0)
Taught#19#5#24                                      1 	(obj:0)
Taught#19#6#32                                      1 	(obj:0)
Taught#19#7#18                                      1 	(obj:0)
Taught#19#8#36                                      1 	(obj:0)
Taught#19#10#21                                     1 	(obj:20)
Taught#19#11#39                                     1 	(obj:0)
Taught#19#12#10                                     1 	(obj:0)
Taught#20#1#19                                      1 	(obj:0)
Taught#20#2#23                                      1 	(obj:0)
Taught#20#3#24                                      1 	(obj:0)
Taught#20#4#31                                      1 	(obj:0)
Taught#20#5#27                                      1 	(obj:0)
Taught#20#6#4                                       1 	(obj:0)
Taught#20#7#17                                      1 	(obj:0)
Taught#20#10#40                                     1 	(obj:0)
CourseSchedule#1#1                                  1 	(obj:0)
CourseSchedule#1#3                                  1 	(obj:0)
CourseSchedule#1#4                                  1 	(obj:0)
CourseSchedule#1#5                                  1 	(obj:0)
CourseSchedule#2#1                                  1 	(obj:0)
CourseSchedule#2#2                                  1 	(obj:0)
CourseSchedule#2#4                                  1 	(obj:0)
CourseSchedule#2#5                                  1 	(obj:0)
CourseSchedule#3#1                                  1 	(obj:0)
CourseSchedule#3#2                                  1 	(obj:0)
CourseSchedule#3#3                                  1 	(obj:0)
CourseSchedule#3#4                                  1 	(obj:0)
CourseSchedule#3#5                                  1 	(obj:0)
CourseSchedule#4#1                                  1 	(obj:0)
CourseSchedule#4#2                                  1 	(obj:0)
CourseSchedule#4#4                                  1 	(obj:0)
CourseSchedule#4#5                                  1 	(obj:0)
CourseSchedule#5#1                                  1 	(obj:0)
CourseSchedule#5#2                                  1 	(obj:0)
CourseSchedule#5#3                                  1 	(obj:0)
CourseSchedule#5#4                                  1 	(obj:0)
CourseSchedule#6#1                                  1 	(obj:0)
CourseSchedule#6#2                                  1 	(obj:0)
CourseSchedule#6#3                                  1 	(obj:0)
CourseSchedule#6#4                                  1 	(obj:0)
CourseSchedule#7#1                                  1 	(obj:0)
CourseSchedule#7#2                                  1 	(obj:0)
CourseSchedule#7#3                                  1 	(obj:0)
CourseSchedule#7#4                                  1 	(obj:0)
CourseSchedule#8#1                                  1 	(obj:0)
CourseSchedule#8#2                                  1 	(obj:0)
CourseSchedule#8#3                                  1 	(obj:0)
CourseSchedule#8#4                                  1 	(obj:0)
CourseSchedule#9#2                                  1 	(obj:0)
CourseSchedule#9#3                                  1 	(obj:0)
CourseSchedule#9#4                                  1 	(obj:0)
CourseSchedule#9#5                                  1 	(obj:0)
CourseSchedule#10#2                                 1 	(obj:0)
CourseSchedule#10#3                                 1 	(obj:0)
CourseSchedule#10#4                                 1 	(obj:0)
CourseSchedule#10#5                                 1 	(obj:0)
CourseSchedule#11#2                                 1 	(obj:0)
CourseSchedule#11#3                                 1 	(obj:0)
CourseSchedule#11#4                                 1 	(obj:0)
CourseSchedule#11#5                                 1 	(obj:0)
CourseSchedule#12#1                                 1 	(obj:0)
CourseSchedule#12#3                                 1 	(obj:0)
CourseSchedule#12#4                                 1 	(obj:0)
CourseSchedule#12#5                                 1 	(obj:0)
CourseSchedule#13#2                                 1 	(obj:0)
CourseSchedule#13#3                                 1 	(obj:0)
CourseSchedule#13#4                                 1 	(obj:0)
CourseSchedule#13#5                                 1 	(obj:0)
CourseSchedule#14#1                                 1 	(obj:0)
CourseSchedule#14#3                                 1 	(obj:0)
CourseSchedule#14#4                                 1 	(obj:0)
CourseSchedule#14#5                                 1 	(obj:0)
CourseSchedule#15#1                                 1 	(obj:0)
CourseSchedule#15#2                                 1 	(obj:0)
CourseSchedule#15#3                                 1 	(obj:0)
CourseSchedule#15#4                                 1 	(obj:0)
CourseSchedule#16#1                                 1 	(obj:0)
CourseSchedule#16#2                                 1 	(obj:0)
CourseSchedule#16#3                                 1 	(obj:0)
CourseSchedule#16#4                                 1 	(obj:0)
CourseSchedule#17#1                                 1 	(obj:0)
CourseSchedule#17#2                                 1 	(obj:0)
CourseSchedule#17#3                                 1 	(obj:0)
CourseSchedule#17#5                                 1 	(obj:0)
CourseSchedule#18#1                                 1 	(obj:0)
CourseSchedule#18#3                                 1 	(obj:0)
CourseSchedule#18#4                                 1 	(obj:0)
CourseSchedule#18#5                                 1 	(obj:0)
CourseSchedule#19#1                                 1 	(obj:0)
CourseSchedule#19#2                                 1 	(obj:0)
CourseSchedule#19#4                                 1 	(obj:0)
CourseSchedule#19#5                                 1 	(obj:0)
CourseSchedule#20#1                                 1 	(obj:0)
CourseSchedule#20#2                                 1 	(obj:0)
CourseSchedule#20#3                                 1 	(obj:0)
CourseSchedule#20#5                                 1 	(obj:0)
CourseSchedule#21#1                                 1 	(obj:0)
CourseSchedule#21#3                                 1 	(obj:0)
CourseSchedule#21#4                                 1 	(obj:0)
CourseSchedule#21#5                                 1 	(obj:0)
CourseSchedule#22#1                                 1 	(obj:0)
CourseSchedule#22#2                                 1 	(obj:0)
CourseSchedule#22#3                                 1 	(obj:0)
CourseSchedule#22#5                                 1 	(obj:0)
CourseSchedule#23#1                                 1 	(obj:0)
CourseSchedule#23#2                                 1 	(obj:0)
CourseSchedule#23#3                                 1 	(obj:0)
CourseSchedule#23#5                                 1 	(obj:0)
CourseSchedule#24#1                                 1 	(obj:0)
CourseSchedule#24#2                                 1 	(obj:0)
CourseSchedule#24#3                                 1 	(obj:0)
CourseSchedule#24#5                                 1 	(obj:0)
CourseSchedule#25#1                                 1 	(obj:0)
CourseSchedule#25#2                                 1 	(obj:0)
CourseSchedule#25#3                                 1 	(obj:0)
CourseSchedule#25#4                                 1 	(obj:0)
CourseSchedule#26#1                                 1 	(obj:0)
CourseSchedule#26#2                                 1 	(obj:0)
CourseSchedule#26#3                                 1 	(obj:0)
CourseSchedule#26#5                                 1 	(obj:0)
CourseSchedule#27#1                                 1 	(obj:0)
CourseSchedule#27#2                                 1 	(obj:0)
CourseSchedule#27#3                                 1 	(obj:0)
CourseSchedule#27#5                                 1 	(obj:0)
CourseSchedule#28#1                                 1 	(obj:0)
CourseSchedule#28#2                                 1 	(obj:0)
CourseSchedule#28#3                                 1 	(obj:0)
CourseSchedule#28#4                                 1 	(obj:0)
CourseSchedule#29#1                                 1 	(obj:0)
CourseSchedule#29#2                                 1 	(obj:0)
CourseSchedule#29#3                                 1 	(obj:0)
CourseSchedule#29#5                                 1 	(obj:0)
CourseSchedule#30#1                                 1 	(obj:0)
CourseSchedule#30#2                                 1 	(obj:0)
CourseSchedule#30#3                                 1 	(obj:0)
CourseSchedule#30#5                                 1 	(obj:0)
CourseSchedule#31#2                                 1 	(obj:0)
CourseSchedule#31#3                                 1 	(obj:0)
CourseSchedule#31#4                                 1 	(obj:0)
CourseSchedule#31#5                                 1 	(obj:0)
CourseSchedule#32#1                                 1 	(obj:0)
CourseSchedule#32#2                                 1 	(obj:0)
CourseSchedule#32#3                                 1 	(obj:0)
CourseSchedule#32#5                                 1 	(obj:0)
CourseSchedule#33#1                                 1 	(obj:0)
CourseSchedule#33#2                                 1 	(obj:0)
CourseSchedule#33#3                                 1 	(obj:0)
CourseSchedule#33#5                                 1 	(obj:0)
CourseSchedule#34#1                                 1 	(obj:0)
CourseSchedule#34#3                                 1 	(obj:0)
CourseSchedule#34#4                                 1 	(obj:0)
CourseSchedule#34#5                                 1 	(obj:0)
CourseSchedule#35#1                                 1 	(obj:0)
CourseSchedule#35#3                                 1 	(obj:0)
CourseSchedule#35#4                                 1 	(obj:0)
CourseSchedule#35#5                                 1 	(obj:0)
CourseSchedule#36#3                                 1 	(obj:0)
CourseSchedule#36#4                                 1 	(obj:0)
CourseSchedule#36#5                                 1 	(obj:0)
CourseSchedule#37#1                                 1 	(obj:0)
CourseSchedule#37#2                                 1 	(obj:0)
CourseSchedule#37#3                                 1 	(obj:0)
CourseSchedule#38#1                                 1 	(obj:0)
CourseSchedule#38#2                                 1 	(obj:0)
CourseSchedule#38#3                                 1 	(obj:0)
CourseSchedule#38#4                                 1 	(obj:0)
CourseSchedule#39#1                                 1 	(obj:0)
CourseSchedule#39#2                                 1 	(obj:0)
CourseSchedule#39#3                                 1 	(obj:0)
CourseSchedule#39#5                                 1 	(obj:0)
CourseSchedule#40#1                                 1 	(obj:0)
CourseSchedule#40#2                                 1 	(obj:0)
CourseSchedule#40#5                                 1 	(obj:0)
CourseSchedule#41#3                                 1 	(obj:0)
CourseSchedule#42#2                                 1 	(obj:0)
CourseSchedule#43#1                                 1 	(obj:0)
CourseSchedule#43#3                                 1 	(obj:0)
CourseSchedule#44#2                                 1 	(obj:0)
CourseSchedule#45#4                                 1 	(obj:0)
CourseSchedule#45#5                                 1 	(obj:0)
CourseSchedule#46#1                                 1 	(obj:0)
CourseSchedule#46#4                                 1 	(obj:0)

Statistics
==========

SCIP Status        : problem is solved [optimal solution found]
Solving Time       :     916.10
Original Problem   :
  Problem name     : udine1.ctt.etp.zpl
  Variables        : 11866 (11820 binary, 46 integer, 0 implicit integer, 0 continuous)
  Constraints      : 5250 initial, 5250 maximal
Presolved Problem  :
  Problem name     : t_udine1.ctt.etp.zpl
  Variables        : 11624 (11578 binary, 46 integer, 0 implicit integer, 0 continuous)
  Constraints      : 3584 initial, 3584 maximal
Presolvers         :       Time  FixedVars   AggrVars   ChgTypes  ChgBounds   AddHoles    DelCons   ChgSides   ChgCoefs
  trivial          :       0.02          0          0          0          0          0          0          0          0
  inttobinary      :       0.00          0          0          0          0          0          0          0          0
  dualfix          :       0.01          0          0          0          0          0          0          0          0
  implics          :       0.01          0          0          0          0          0          0          0          0
  probing          :       1.54          0          0          0          0          0          0          0          0
  knapsack         :       2.96          0          0          0          0          0          0          0         11
  setppc           :       0.07          0          0          0          0          0         63          0          0
  linear           :       2.11        242          0          0        242          0       1603       1582          0
  logicor          :       0.00          0          0          0          0          0          0          0          0
  root node        :          -       5008          -          -       5008          -          -          -          -
Constraints        :     Number  #Separate #Propagate    #EnfoLP    #EnfoPS    Cutoffs    DomReds       Cuts      Conss   Children
  integral         :          0          0          0        229          0          0          0          0          0        454
  knapsack         :       1430          6        655          2          0          0          0          0          0          0
  setppc           :       1785          6        655          2          0          0       9967          0          0          0
  linear           :        141          6        294          2          0          0        464          0          0          0
  logicor          :        228          6        191          2          0          0         17          0          0          0
Constraint Timings :  TotalTime   Separate  Propagate     EnfoLP     EnfoPS
  integral         :     592.48       0.00       0.00     592.48       0.00
  knapsack         :       0.35       0.26       0.09       0.00       0.00
  setppc           :       0.17       0.00       0.17       0.00       0.00
  linear           :       1.51       0.14       1.37       0.00       0.00
  logicor          :       0.01       0.00       0.01       0.00       0.00
Propagators        :       Time      Calls    Cutoffs    DomReds
  rootredcost      :       0.02          1          0       5000
  pseudoobj        :       0.00        455          0          0
Conflict Analysis  :       Time      Calls    Success  Conflicts   Literals    Reconvs ReconvLits   LP Iters
  propagation      :       0.00          0          0          0        0.0          0        0.0          -
  infeasible LP    :       0.00          0          0          0        0.0          0        0.0          0
  bound exceed. LP :       0.00          0          0          0        0.0          0        0.0          0
  strong branching :       0.00          0          0          0        0.0          0        0.0          0
  pseudo solution  :       0.00          0          0          0        0.0          0        0.0          -
  applied globally :          -          -          -          0        0.0          -          -          -
  applied locally  :          -          -          -          0        0.0          -          -          -
Separators         :       Time      Calls    Cutoffs    DomReds       Cuts      Conss
  cut pool         :       0.00          5          -          -          1          -    (maximal pool size: 15)
  redcost          :       0.56        234          0          0          0          0
  impliedbounds    :       0.01          6          0          0          0          0
  intobj           :       0.00          0          0          0          0          0
  gomory           :       0.49          6          0          0          0          0
  strongcg         :       0.56          6          0          0          0          0
  cmir             :       1.84          6          0          0          0          0
  clique           :       0.13          6          0          0         14          0
Pricers            :       Time      Calls       Vars
  problem variables:       0.00          0          0
Branching Rules    :       Time      Calls    Cutoffs    DomReds       Cuts      Conss   Children
  relpscost        :     592.48        227          0          0          0          0        454
  pscost           :       0.00          0          0          0          0          0          0
  inference        :       0.00          0          0          0          0          0          0
  mostinf          :       0.00          0          0          0          0          0          0
  leastinf         :       0.00          0          0          0          0          0          0
  fullstrong       :       0.00          0          0          0          0          0          0
  allfullstrong    :       0.00          0          0          0          0          0          0
Primal Heuristics  :       Time      Calls      Found
  LP solutions     :       0.02          -          2
  pseudo solutions :       0.00          -          0
  coefdiving       :       0.00          0          0
  pscostdiving     :       0.00          0          0
  fracdiving       :       0.00          0          0
  objpscostdiving  :       0.00          0          0
  rootsoldiving    :       0.00          0          0
  linesearchdiving :       0.00          0          0
  guideddiving     :       0.00          0          0
  crossover        :       0.00          0          0
  feaspump         :      40.58          1          0
  simplerounding   :       0.78        233          0
  rounding         :       0.93        233          0
  shifting         :       0.75         28          0
  fixandinfer      :       0.00          0          0
  intdiving        :       0.00          0          0
  octane           :       0.00          0          0
  rins             :       0.00          0          0
  localbranching   :       0.00          0          0
LP                 :       Time      Calls Iterations  Iter/call   Iter/sec
  primal LP        :       0.02          0          0       0.00       0.00
  dual LP          :     267.02        235      82736     352.07     309.85
  barrier LP       :       0.00          0          0       0.00          -
  diving/probing LP:      40.36         14      12719     908.50     315.14
  strong branching :     592.41        218     172544     791.49     291.26
    (at root node) :          -         33      25660     777.58          -
  conflict analysis:       0.00          0          0       0.00          -
B&B Tree           :
  number of runs   :          1
  nodes            :        229
  nodes (total)    :        229
  nodes left       :          0
  max depth        :        140
  max depth (total):        140
  backtracks       :          1 (0.4%)
  delayed cutoffs  :          0
  repropagations   :         14 (8 domain reductions, 0 cutoffs)
  avg switch length:       2.11
  switching time   :       0.18
Solution           :
  Solutions found  :          2 (2 improvements)
  Primal Bound     : +2.00000000000000e+02   (in run 1, after 229 nodes, 916.06 seconds, depth 100, found by <relaxation>)
  Dual Bound       : +2.00000000000000e+02
  Gap              :       0.00 %
  Root Dual Bound  : +2.00000000000008e+02
